files/upTests/_mset/msetIntersect2/0015.eprime.solution
language ESSENCE' 1.0
$ minion Nodes: 12
$ minion TotalTime: 0.00546
$ Savile Row TotalTime: 2.183
letting c be 3
letting a_MSetOccurrence be [0, 1, 1, 1, 1;int(3..7)]
letting a_MSetExplicit be [4, 5, 6, 7;int(1..4)]
letting b_MSetOccurrence be [1, 0, 1, 1, 1;int(3..7)]
